p cnf 141 1723
51 25 52 0
51 -25 -52 0
-51 25 -52 0
-51 -25 52 0
52 16 40 17 41 18 42 19 43 20 44 21 45 23 25 26 3 27 4 28 5 29 30 7 8 32 10 34 11 12 2 46 47 48 49 50 37 14 38 15 39 0
-52 -16 0
-52 -40 0
-52 -17 0
-52 -41 0
-52 -18 0
-52 -42 0
-52 -19 0
-52 -43 0
-52 -20 0
-52 -44 0
-52 -21 0
-52 -45 0
-52 -23 0
-52 -25 0
-52 -26 0
-52 -3 0
-52 -27 0
-52 -4 0
-52 -28 0
-52 -5 0
-52 -29 0
-52 -30 0
-52 -7 0
-52 -8 0
-52 -32 0
-52 -10 0
-52 -34 0
-52 -11 0
-52 -12 0
-52 -2 0
-52 -46 0
-52 -47 0
-52 -48 0
-52 -49 0
-52 -50 0
-52 -37 0
-52 -14 0
-52 -38 0
-52 -15 0
-52 -39 0
53 1 54 0
53 -1 -54 0
-53 1 -54 0
-53 -1 54 0
54 16 17 42 19 20 44 21 45 23 25 26 3 28 7 8 10 11 12 2 47 48 49 50 37 14 38 15 39 0
-54 -16 0
-54 -17 0
-54 -42 0
-54 -19 0
-54 -20 0
-54 -44 0
-54 -21 0
-54 -45 0
-54 -23 0
-54 -25 0
-54 -26 0
-54 -3 0
-54 -28 0
-54 -7 0
-54 -8 0
-54 -10 0
-54 -11 0
-54 -12 0
-54 -2 0
-54 -47 0
-54 -48 0
-54 -49 0
-54 -50 0
-54 -37 0
-54 -14 0
-54 -38 0
-54 -15 0
-54 -39 0
55 42 56 0
55 -42 -56 0
-55 42 -56 0
-55 -42 56 0
56 16 40 17 41 18 42 19 43 20 44 21 45 23 25 26 3 28 5 29 30 7 8 32 10 34 11 12 2 46 47 48 49 50 37 14 38 15 39 0
-56 -16 0
-56 -40 0
-56 -17 0
-56 -41 0
-56 -18 0
-56 -42 0
-56 -19 0
-56 -43 0
-56 -20 0
-56 -44 0
-56 -21 0
-56 -45 0
-56 -23 0
-56 -25 0
-56 -26 0
-56 -3 0
-56 -28 0
-56 -5 0
-56 -29 0
-56 -30 0
-56 -7 0
-56 -8 0
-56 -32 0
-56 -10 0
-56 -34 0
-56 -11 0
-56 -12 0
-56 -2 0
-56 -46 0
-56 -47 0
-56 -48 0
-56 -49 0
-56 -50 0
-56 -37 0
-56 -14 0
-56 -38 0
-56 -15 0
-56 -39 0
57 10 58 0
57 -10 -58 0
-57 10 -58 0
-57 -10 58 0
58 16 17 29 18 30 42 7 19 43 8 32 44 12 2 47 48 49 50 39 0
-58 -16 0
-58 -17 0
-58 -29 0
-58 -18 0
-58 -30 0
-58 -42 0
-58 -7 0
-58 -19 0
-58 -43 0
-58 -8 0
-58 -32 0
-58 -44 0
-58 -12 0
-58 -2 0
-58 -47 0
-58 -48 0
-58 -49 0
-58 -50 0
-58 -39 0
59 16 60 0
59 -16 -60 0
-59 16 -60 0
-59 -16 60 0
60 16 40 17 41 18 42 19 43 44 21 45 23 25 26 3 27 4 28 5 29 30 7 8 32 9 10 34 11 12 2 46 47 48 49 50 37 14 38 15 39 0
-60 -16 0
-60 -40 0
-60 -17 0
-60 -41 0
-60 -18 0
-60 -42 0
-60 -19 0
-60 -43 0
-60 -44 0
-60 -21 0
-60 -45 0
-60 -23 0
-60 -25 0
-60 -26 0
-60 -3 0
-60 -27 0
-60 -4 0
-60 -28 0
-60 -5 0
-60 -29 0
-60 -30 0
-60 -7 0
-60 -8 0
-60 -32 0
-60 -9 0
-60 -10 0
-60 -34 0
-60 -11 0
-60 -12 0
-60 -2 0
-60 -46 0
-60 -47 0
-60 -48 0
-60 -49 0
-60 -50 0
-60 -37 0
-60 -14 0
-60 -38 0
-60 -15 0
-60 -39 0
61 23 62 0
61 -23 -62 0
-61 23 -62 0
-61 -23 62 0
62 16 40 17 41 18 42 19 43 20 44 21 45 23 25 26 3 27 4 28 5 29 30 7 8 32 9 10 34 11 12 2 46 47 48 49 50 37 14 38 15 39 0
-62 -16 0
-62 -40 0
-62 -17 0
-62 -41 0
-62 -18 0
-62 -42 0
-62 -19 0
-62 -43 0
-62 -20 0
-62 -44 0
-62 -21 0
-62 -45 0
-62 -23 0
-62 -25 0
-62 -26 0
-62 -3 0
-62 -27 0
-62 -4 0
-62 -28 0
-62 -5 0
-62 -29 0
-62 -30 0
-62 -7 0
-62 -8 0
-62 -32 0
-62 -9 0
-62 -10 0
-62 -34 0
-62 -11 0
-62 -12 0
-62 -2 0
-62 -46 0
-62 -47 0
-62 -48 0
-62 -49 0
-62 -50 0
-62 -37 0
-62 -14 0
-62 -38 0
-62 -15 0
-62 -39 0
63 35 64 0
63 -35 -64 0
-63 35 -64 0
-63 -35 64 0
64 41 42 19 43 45 23 1 2 46 47 49 25 15 0
-64 -41 0
-64 -42 0
-64 -19 0
-64 -43 0
-64 -45 0
-64 -23 0
-64 -1 0
-64 -2 0
-64 -46 0
-64 -47 0
-64 -49 0
-64 -25 0
-64 -15 0
65 47 66 0
65 -47 -66 0
-65 47 -66 0
-65 -47 66 0
66 16 40 17 41 18 42 19 43 20 44 21 45 23 25 26 3 27 4 28 5 29 30 7 8 32 9 10 34 11 12 2 46 47 48 49 50 37 14 38 15 39 0
-66 -16 0
-66 -40 0
-66 -17 0
-66 -41 0
-66 -18 0
-66 -42 0
-66 -19 0
-66 -43 0
-66 -20 0
-66 -44 0
-66 -21 0
-66 -45 0
-66 -23 0
-66 -25 0
-66 -26 0
-66 -3 0
-66 -27 0
-66 -4 0
-66 -28 0
-66 -5 0
-66 -29 0
-66 -30 0
-66 -7 0
-66 -8 0
-66 -32 0
-66 -9 0
-66 -10 0
-66 -34 0
-66 -11 0
-66 -12 0
-66 -2 0
-66 -46 0
-66 -47 0
-66 -48 0
-66 -49 0
-66 -50 0
-66 -37 0
-66 -14 0
-66 -38 0
-66 -15 0
-66 -39 0
67 22 68 0
67 -22 -68 0
-67 22 -68 0
-67 -22 68 0
68 16 40 5 29 7 19 43 8 32 9 12 2 47 48 14 39 0
-68 -16 0
-68 -40 0
-68 -5 0
-68 -29 0
-68 -7 0
-68 -19 0
-68 -43 0
-68 -8 0
-68 -32 0
-68 -9 0
-68 -12 0
-68 -2 0
-68 -47 0
-68 -48 0
-68 -14 0
-68 -39 0
69 11 70 0
69 -11 -70 0
-69 11 -70 0
-69 -11 70 0
70 16 40 17 41 18 42 19 43 44 21 45 23 25 26 3 27 4 28 5 29 30 7 8 32 10 34 11 12 1 2 46 47 48 49 50 37 14 38 15 39 0
-70 -16 0
-70 -40 0
-70 -17 0
-70 -41 0
-70 -18 0
-70 -42 0
-70 -19 0
-70 -43 0
-70 -44 0
-70 -21 0
-70 -45 0
-70 -23 0
-70 -25 0
-70 -26 0
-70 -3 0
-70 -27 0
-70 -4 0
-70 -28 0
-70 -5 0
-70 -29 0
-70 -30 0
-70 -7 0
-70 -8 0
-70 -32 0
-70 -10 0
-70 -34 0
-70 -11 0
-70 -12 0
-70 -1 0
-70 -2 0
-70 -46 0
-70 -47 0
-70 -48 0
-70 -49 0
-70 -50 0
-70 -37 0
-70 -14 0
-70 -38 0
-70 -15 0
-70 -39 0
71 49 72 0
71 -49 -72 0
-71 49 -72 0
-71 -49 72 0
72 16 40 17 41 18 42 19 43 20 44 21 45 23 25 26 3 27 4 28 5 29 30 7 8 32 10 34 11 12 2 46 47 48 49 50 37 14 38 15 39 0
-72 -16 0
-72 -40 0
-72 -17 0
-72 -41 0
-72 -18 0
-72 -42 0
-72 -19 0
-72 -43 0
-72 -20 0
-72 -44 0
-72 -21 0
-72 -45 0
-72 -23 0
-72 -25 0
-72 -26 0
-72 -3 0
-72 -27 0
-72 -4 0
-72 -28 0
-72 -5 0
-72 -29 0
-72 -30 0
-72 -7 0
-72 -8 0
-72 -32 0
-72 -10 0
-72 -34 0
-72 -11 0
-72 -12 0
-72 -2 0
-72 -46 0
-72 -47 0
-72 -48 0
-72 -49 0
-72 -50 0
-72 -37 0
-72 -14 0
-72 -38 0
-72 -15 0
-72 -39 0
73 12 74 0
73 -12 -74 0
-73 12 -74 0
-73 -12 74 0
74 16 40 17 41 18 42 19 43 44 21 45 23 25 26 3 28 5 29 30 7 8 32 9 10 34 11 12 1 2 46 47 48 49 50 37 14 38 15 39 0
-74 -16 0
-74 -40 0
-74 -17 0
-74 -41 0
-74 -18 0
-74 -42 0
-74 -19 0
-74 -43 0
-74 -44 0
-74 -21 0
-74 -45 0
-74 -23 0
-74 -25 0
-74 -26 0
-74 -3 0
-74 -28 0
-74 -5 0
-74 -29 0
-74 -30 0
-74 -7 0
-74 -8 0
-74 -32 0
-74 -9 0
-74 -10 0
-74 -34 0
-74 -11 0
-74 -12 0
-74 -1 0
-74 -2 0
-74 -46 0
-74 -47 0
-74 -48 0
-74 -49 0
-74 -50 0
-74 -37 0
-74 -14 0
-74 -38 0
-74 -15 0
-74 -39 0
75 18 76 0
75 -18 -76 0
-75 18 -76 0
-75 -18 76 0
76 16 40 17 41 42 19 43 44 21 45 23 25 26 3 28 5 29 7 8 10 34 11 12 1 2 46 47 48 49 50 37 14 38 15 39 0
-76 -16 0
-76 -40 0
-76 -17 0
-76 -41 0
-76 -42 0
-76 -19 0
-76 -43 0
-76 -44 0
-76 -21 0
-76 -45 0
-76 -23 0
-76 -25 0
-76 -26 0
-76 -3 0
-76 -28 0
-76 -5 0
-76 -29 0
-76 -7 0
-76 -8 0
-76 -10 0
-76 -34 0
-76 -11 0
-76 -12 0
-76 -1 0
-76 -2 0
-76 -46 0
-76 -47 0
-76 -48 0
-76 -49 0
-76 -50 0
-76 -37 0
-76 -14 0
-76 -38 0
-76 -15 0
-76 -39 0
77 41 78 0
77 -41 -78 0
-77 41 -78 0
-77 -41 78 0
78 16 40 17 41 42 19 43 20 44 21 45 23 25 26 3 27 4 28 5 29 7 8 10 34 11 12 2 46 47 48 49 50 37 14 38 15 39 0
-78 -16 0
-78 -40 0
-78 -17 0
-78 -41 0
-78 -42 0
-78 -19 0
-78 -43 0
-78 -20 0
-78 -44 0
-78 -21 0
-78 -45 0
-78 -23 0
-78 -25 0
-78 -26 0
-78 -3 0
-78 -27 0
-78 -4 0
-78 -28 0
-78 -5 0
-78 -29 0
-78 -7 0
-78 -8 0
-78 -10 0
-78 -34 0
-78 -11 0
-78 -12 0
-78 -2 0
-78 -46 0
-78 -47 0
-78 -48 0
-78 -49 0
-78 -50 0
-78 -37 0
-78 -14 0
-78 -38 0
-78 -15 0
-78 -39 0
79 29 80 0
79 -29 -80 0
-79 29 -80 0
-79 -29 80 0
80 16 40 17 41 42 19 43 44 21 45 23 25 26 3 27 4 28 5 29 7 8 32 9 10 34 11 12 2 46 47 48 49 50 37 14 38 15 39 0
-80 -16 0
-80 -40 0
-80 -17 0
-80 -41 0
-80 -42 0
-80 -19 0
-80 -43 0
-80 -44 0
-80 -21 0
-80 -45 0
-80 -23 0
-80 -25 0
-80 -26 0
-80 -3 0
-80 -27 0
-80 -4 0
-80 -28 0
-80 -5 0
-80 -29 0
-80 -7 0
-80 -8 0
-80 -32 0
-80 -9 0
-80 -10 0
-80 -34 0
-80 -11 0
-80 -12 0
-80 -2 0
-80 -46 0
-80 -47 0
-80 -48 0
-80 -49 0
-80 -50 0
-80 -37 0
-80 -14 0
-80 -38 0
-80 -15 0
-80 -39 0
81 37 82 0
81 -37 -82 0
-81 37 -82 0
-81 -37 82 0
82 16 40 17 41 18 42 19 43 44 21 45 23 25 26 3 28 5 29 30 7 8 32 9 10 11 12 1 2 46 47 48 49 50 37 14 38 15 39 0
-82 -16 0
-82 -40 0
-82 -17 0
-82 -41 0
-82 -18 0
-82 -42 0
-82 -19 0
-82 -43 0
-82 -44 0
-82 -21 0
-82 -45 0
-82 -23 0
-82 -25 0
-82 -26 0
-82 -3 0
-82 -28 0
-82 -5 0
-82 -29 0
-82 -30 0
-82 -7 0
-82 -8 0
-82 -32 0
-82 -9 0
-82 -10 0
-82 -11 0
-82 -12 0
-82 -1 0
-82 -2 0
-82 -46 0
-82 -47 0
-82 -48 0
-82 -49 0
-82 -50 0
-82 -37 0
-82 -14 0
-82 -38 0
-82 -15 0
-82 -39 0
83 50 84 0
83 -50 -84 0
-83 50 -84 0
-83 -50 84 0
84 16 40 17 41 18 42 19 43 44 21 45 23 25 26 3 27 4 28 5 29 30 7 8 32 10 34 11 12 2 46 47 48 49 50 37 14 38 15 39 0
-84 -16 0
-84 -40 0
-84 -17 0
-84 -41 0
-84 -18 0
-84 -42 0
-84 -19 0
-84 -43 0
-84 -44 0
-84 -21 0
-84 -45 0
-84 -23 0
-84 -25 0
-84 -26 0
-84 -3 0
-84 -27 0
-84 -4 0
-84 -28 0
-84 -5 0
-84 -29 0
-84 -30 0
-84 -7 0
-84 -8 0
-84 -32 0
-84 -10 0
-84 -34 0
-84 -11 0
-84 -12 0
-84 -2 0
-84 -46 0
-84 -47 0
-84 -48 0
-84 -49 0
-84 -50 0
-84 -37 0
-84 -14 0
-84 -38 0
-84 -15 0
-84 -39 0
85 36 86 0
85 -36 -86 0
-85 36 -86 0
-85 -36 86 0
86 16 40 17 41 42 19 43 44 21 45 23 25 3 5 29 7 8 34 11 12 2 46 47 48 49 50 37 14 15 39 0
-86 -16 0
-86 -40 0
-86 -17 0
-86 -41 0
-86 -42 0
-86 -19 0
-86 -43 0
-86 -44 0
-86 -21 0
-86 -45 0
-86 -23 0
-86 -25 0
-86 -3 0
-86 -5 0
-86 -29 0
-86 -7 0
-86 -8 0
-86 -34 0
-86 -11 0
-86 -12 0
-86 -2 0
-86 -46 0
-86 -47 0
-86 -48 0
-86 -49 0
-86 -50 0
-86 -37 0
-86 -14 0
-86 -15 0
-86 -39 0
87 32 88 0
87 -32 -88 0
-87 32 -88 0
-87 -32 88 0
88 16 40 41 42 19 43 44 45 23 25 3 27 4 5 29 7 8 32 9 34 11 12 1 2 46 47 48 49 50 37 14 15 39 0
-88 -16 0
-88 -40 0
-88 -41 0
-88 -42 0
-88 -19 0
-88 -43 0
-88 -44 0
-88 -45 0
-88 -23 0
-88 -25 0
-88 -3 0
-88 -27 0
-88 -4 0
-88 -5 0
-88 -29 0
-88 -7 0
-88 -8 0
-88 -32 0
-88 -9 0
-88 -34 0
-88 -11 0
-88 -12 0
-88 -1 0
-88 -2 0
-88 -46 0
-88 -47 0
-88 -48 0
-88 -49 0
-88 -50 0
-88 -37 0
-88 -14 0
-88 -15 0
-88 -39 0
89 8 90 0
89 -8 -90 0
-89 8 -90 0
-89 -8 90 0
90 16 40 17 41 18 42 19 43 44 21 45 23 25 26 3 28 5 29 30 7 8 32 9 10 34 11 12 2 46 47 48 49 50 37 14 38 15 39 0
-90 -16 0
-90 -40 0
-90 -17 0
-90 -41 0
-90 -18 0
-90 -42 0
-90 -19 0
-90 -43 0
-90 -44 0
-90 -21 0
-90 -45 0
-90 -23 0
-90 -25 0
-90 -26 0
-90 -3 0
-90 -28 0
-90 -5 0
-90 -29 0
-90 -30 0
-90 -7 0
-90 -8 0
-90 -32 0
-90 -9 0
-90 -10 0
-90 -34 0
-90 -11 0
-90 -12 0
-90 -2 0
-90 -46 0
-90 -47 0
-90 -48 0
-90 -49 0
-90 -50 0
-90 -37 0
-90 -14 0
-90 -38 0
-90 -15 0
-90 -39 0
91 38 92 0
91 -38 -92 0
-91 38 -92 0
-91 -38 92 0
92 16 40 17 18 42 19 43 44 27 4 5 29 30 7 8 32 12 2 47 48 49 50 14 39 0
-92 -16 0
-92 -40 0
-92 -17 0
-92 -18 0
-92 -42 0
-92 -19 0
-92 -43 0
-92 -44 0
-92 -27 0
-92 -4 0
-92 -5 0
-92 -29 0
-92 -30 0
-92 -7 0
-92 -8 0
-92 -32 0
-92 -12 0
-92 -2 0
-92 -47 0
-92 -48 0
-92 -49 0
-92 -50 0
-92 -14 0
-92 -39 0
93 33 94 0
93 -33 -94 0
-93 33 -94 0
-93 -33 94 0
94 28 7 20 44 11 48 12 37 0
-94 -28 0
-94 -7 0
-94 -20 0
-94 -44 0
-94 -11 0
-94 -48 0
-94 -12 0
-94 -37 0
95 19 96 0
95 -19 -96 0
-95 19 -96 0
-95 -19 96 0
96 16 40 17 41 18 42 19 43 20 44 21 45 23 25 26 3 28 5 29 30 7 8 32 9 10 11 12 2 47 48 49 50 37 14 38 15 39 0
-96 -16 0
-96 -40 0
-96 -17 0
-96 -41 0
-96 -18 0
-96 -42 0
-96 -19 0
-96 -43 0
-96 -20 0
-96 -44 0
-96 -21 0
-96 -45 0
-96 -23 0
-96 -25 0
-96 -26 0
-96 -3 0
-96 -28 0
-96 -5 0
-96 -29 0
-96 -30 0
-96 -7 0
-96 -8 0
-96 -32 0
-96 -9 0
-96 -10 0
-96 -11 0
-96 -12 0
-96 -2 0
-96 -47 0
-96 -48 0
-96 -49 0
-96 -50 0
-96 -37 0
-96 -14 0
-96 -38 0
-96 -15 0
-96 -39 0
97 3 98 0
97 -3 -98 0
-97 3 -98 0
-97 -3 98 0
98 16 40 17 41 18 42 19 43 44 21 45 23 25 26 3 27 4 28 5 29 30 7 8 32 10 34 11 12 2 46 47 48 49 50 37 14 38 15 39 0
-98 -16 0
-98 -40 0
-98 -17 0
-98 -41 0
-98 -18 0
-98 -42 0
-98 -19 0
-98 -43 0
-98 -44 0
-98 -21 0
-98 -45 0
-98 -23 0
-98 -25 0
-98 -26 0
-98 -3 0
-98 -27 0
-98 -4 0
-98 -28 0
-98 -5 0
-98 -29 0
-98 -30 0
-98 -7 0
-98 -8 0
-98 -32 0
-98 -10 0
-98 -34 0
-98 -11 0
-98 -12 0
-98 -2 0
-98 -46 0
-98 -47 0
-98 -48 0
-98 -49 0
-98 -50 0
-98 -37 0
-98 -14 0
-98 -38 0
-98 -15 0
-98 -39 0
99 45 100 0
99 -45 -100 0
-99 45 -100 0
-99 -45 100 0
100 16 40 17 41 18 42 19 43 20 44 21 45 23 25 26 3 28 5 29 30 7 8 32 9 10 11 12 2 47 48 49 50 37 14 38 15 39 0
-100 -16 0
-100 -40 0
-100 -17 0
-100 -41 0
-100 -18 0
-100 -42 0
-100 -19 0
-100 -43 0
-100 -20 0
-100 -44 0
-100 -21 0
-100 -45 0
-100 -23 0
-100 -25 0
-100 -26 0
-100 -3 0
-100 -28 0
-100 -5 0
-100 -29 0
-100 -30 0
-100 -7 0
-100 -8 0
-100 -32 0
-100 -9 0
-100 -10 0
-100 -11 0
-100 -12 0
-100 -2 0
-100 -47 0
-100 -48 0
-100 -49 0
-100 -50 0
-100 -37 0
-100 -14 0
-100 -38 0
-100 -15 0
-100 -39 0
101 14 102 0
101 -14 -102 0
-101 14 -102 0
-101 -14 102 0
102 16 40 17 41 18 42 19 43 44 21 45 23 25 26 3 28 5 29 30 7 8 32 9 10 11 12 2 47 48 49 50 37 14 38 15 39 0
-102 -16 0
-102 -40 0
-102 -17 0
-102 -41 0
-102 -18 0
-102 -42 0
-102 -19 0
-102 -43 0
-102 -44 0
-102 -21 0
-102 -45 0
-102 -23 0
-102 -25 0
-102 -26 0
-102 -3 0
-102 -28 0
-102 -5 0
-102 -29 0
-102 -30 0
-102 -7 0
-102 -8 0
-102 -32 0
-102 -9 0
-102 -10 0
-102 -11 0
-102 -12 0
-102 -2 0
-102 -47 0
-102 -48 0
-102 -49 0
-102 -50 0
-102 -37 0
-102 -14 0
-102 -38 0
-102 -15 0
-102 -39 0
103 31 104 0
103 -31 -104 0
-103 31 -104 0
-103 -31 104 0
104 16 40 41 42 19 43 44 45 23 25 3 27 4 5 29 7 8 34 11 12 1 2 46 47 48 49 50 37 14 15 39 0
-104 -16 0
-104 -40 0
-104 -41 0
-104 -42 0
-104 -19 0
-104 -43 0
-104 -44 0
-104 -45 0
-104 -23 0
-104 -25 0
-104 -3 0
-104 -27 0
-104 -4 0
-104 -5 0
-104 -29 0
-104 -7 0
-104 -8 0
-104 -34 0
-104 -11 0
-104 -12 0
-104 -1 0
-104 -2 0
-104 -46 0
-104 -47 0
-104 -48 0
-104 -49 0
-104 -50 0
-104 -37 0
-104 -14 0
-104 -15 0
-104 -39 0
105 46 106 0
105 -46 -106 0
-105 46 -106 0
-105 -46 106 0
106 16 17 41 42 19 43 20 44 21 45 23 25 26 3 28 5 29 7 8 10 11 12 2 47 48 49 50 37 14 38 15 39 0
-106 -16 0
-106 -17 0
-106 -41 0
-106 -42 0
-106 -19 0
-106 -43 0
-106 -20 0
-106 -44 0
-106 -21 0
-106 -45 0
-106 -23 0
-106 -25 0
-106 -26 0
-106 -3 0
-106 -28 0
-106 -5 0
-106 -29 0
-106 -7 0
-106 -8 0
-106 -10 0
-106 -11 0
-106 -12 0
-106 -2 0
-106 -47 0
-106 -48 0
-106 -49 0
-106 -50 0
-106 -37 0
-106 -14 0
-106 -38 0
-106 -15 0
-106 -39 0
107 15 108 0
107 -15 -108 0
-107 15 -108 0
-107 -15 108 0
108 16 17 41 18 42 19 43 20 44 21 45 23 25 26 3 28 5 29 30 7 8 32 10 11 12 2 47 48 49 50 37 14 38 15 39 0
-108 -16 0
-108 -17 0
-108 -41 0
-108 -18 0
-108 -42 0
-108 -19 0
-108 -43 0
-108 -20 0
-108 -44 0
-108 -21 0
-108 -45 0
-108 -23 0
-108 -25 0
-108 -26 0
-108 -3 0
-108 -28 0
-108 -5 0
-108 -29 0
-108 -30 0
-108 -7 0
-108 -8 0
-108 -32 0
-108 -10 0
-108 -11 0
-108 -12 0
-108 -2 0
-108 -47 0
-108 -48 0
-108 -49 0
-108 -50 0
-108 -37 0
-108 -14 0
-108 -38 0
-108 -15 0
-108 -39 0
109 27 110 0
109 -27 -110 0
-109 27 -110 0
-109 -27 110 0
110 16 17 42 19 44 21 45 23 25 26 3 28 7 8 10 11 12 2 47 48 49 50 37 14 38 15 39 0
-110 -16 0
-110 -17 0
-110 -42 0
-110 -19 0
-110 -44 0
-110 -21 0
-110 -45 0
-110 -23 0
-110 -25 0
-110 -26 0
-110 -3 0
-110 -28 0
-110 -7 0
-110 -8 0
-110 -10 0
-110 -11 0
-110 -12 0
-110 -2 0
-110 -47 0
-110 -48 0
-110 -49 0
-110 -50 0
-110 -37 0
-110 -14 0
-110 -38 0
-110 -15 0
-110 -39 0
111 21 112 0
111 -21 -112 0
-111 21 -112 0
-111 -21 112 0
112 16 17 18 42 19 43 44 21 45 23 25 26 3 28 29 30 7 8 32 10 11 12 2 47 48 49 50 37 14 38 15 39 0
-112 -16 0
-112 -17 0
-112 -18 0
-112 -42 0
-112 -19 0
-112 -43 0
-112 -44 0
-112 -21 0
-112 -45 0
-112 -23 0
-112 -25 0
-112 -26 0
-112 -3 0
-112 -28 0
-112 -29 0
-112 -30 0
-112 -7 0
-112 -8 0
-112 -32 0
-112 -10 0
-112 -11 0
-112 -12 0
-112 -2 0
-112 -47 0
-112 -48 0
-112 -49 0
-112 -50 0
-112 -37 0
-112 -14 0
-112 -38 0
-112 -15 0
-112 -39 0
113 2 114 0
113 -2 -114 0
-113 2 -114 0
-113 -2 114 0
114 16 40 17 41 18 42 19 43 20 44 21 45 23 25 26 3 28 5 29 30 7 8 32 9 10 34 11 12 2 46 47 48 49 50 37 14 38 15 39 0
-114 -16 0
-114 -40 0
-114 -17 0
-114 -41 0
-114 -18 0
-114 -42 0
-114 -19 0
-114 -43 0
-114 -20 0
-114 -44 0
-114 -21 0
-114 -45 0
-114 -23 0
-114 -25 0
-114 -26 0
-114 -3 0
-114 -28 0
-114 -5 0
-114 -29 0
-114 -30 0
-114 -7 0
-114 -8 0
-114 -32 0
-114 -9 0
-114 -10 0
-114 -34 0
-114 -11 0
-114 -12 0
-114 -2 0
-114 -46 0
-114 -47 0
-114 -48 0
-114 -49 0
-114 -50 0
-114 -37 0
-114 -14 0
-114 -38 0
-114 -15 0
-114 -39 0
115 17 116 0
115 -17 -116 0
-115 17 -116 0
-115 -17 116 0
116 16 40 17 41 18 42 19 43 44 21 45 23 25 3 5 29 30 7 8 32 34 11 12 2 46 47 48 49 50 37 14 15 39 0
-116 -16 0
-116 -40 0
-116 -17 0
-116 -41 0
-116 -18 0
-116 -42 0
-116 -19 0
-116 -43 0
-116 -44 0
-116 -21 0
-116 -45 0
-116 -23 0
-116 -25 0
-116 -3 0
-116 -5 0
-116 -29 0
-116 -30 0
-116 -7 0
-116 -8 0
-116 -32 0
-116 -34 0
-116 -11 0
-116 -12 0
-116 -2 0
-116 -46 0
-116 -47 0
-116 -48 0
-116 -49 0
-116 -50 0
-116 -37 0
-116 -14 0
-116 -15 0
-116 -39 0
117 44 118 0
117 -44 -118 0
-117 44 -118 0
-117 -44 118 0
118 16 40 17 41 18 42 19 43 44 21 45 23 25 26 3 27 4 28 5 29 30 7 8 32 10 34 11 12 1 2 46 47 48 49 50 37 14 38 15 39 0
-118 -16 0
-118 -40 0
-118 -17 0
-118 -41 0
-118 -18 0
-118 -42 0
-118 -19 0
-118 -43 0
-118 -44 0
-118 -21 0
-118 -45 0
-118 -23 0
-118 -25 0
-118 -26 0
-118 -3 0
-118 -27 0
-118 -4 0
-118 -28 0
-118 -5 0
-118 -29 0
-118 -30 0
-118 -7 0
-118 -8 0
-118 -32 0
-118 -10 0
-118 -34 0
-118 -11 0
-118 -12 0
-118 -1 0
-118 -2 0
-118 -46 0
-118 -47 0
-118 -48 0
-118 -49 0
-118 -50 0
-118 -37 0
-118 -14 0
-118 -38 0
-118 -15 0
-118 -39 0
119 40 120 0
119 -40 -120 0
-119 40 -120 0
-119 -40 120 0
120 16 17 41 42 19 43 44 21 45 23 25 26 3 28 5 29 7 8 10 11 12 2 47 48 49 50 37 14 38 15 39 0
-120 -16 0
-120 -17 0
-120 -41 0
-120 -42 0
-120 -19 0
-120 -43 0
-120 -44 0
-120 -21 0
-120 -45 0
-120 -23 0
-120 -25 0
-120 -26 0
-120 -3 0
-120 -28 0
-120 -5 0
-120 -29 0
-120 -7 0
-120 -8 0
-120 -10 0
-120 -11 0
-120 -12 0
-120 -2 0
-120 -47 0
-120 -48 0
-120 -49 0
-120 -50 0
-120 -37 0
-120 -14 0
-120 -38 0
-120 -15 0
-120 -39 0
121 7 122 0
121 -7 -122 0
-121 7 -122 0
-121 -7 122 0
122 16 40 17 41 18 42 19 43 44 21 45 23 25 26 3 28 5 29 30 7 8 32 9 10 11 12 1 2 46 47 48 49 50 37 14 38 15 39 0
-122 -16 0
-122 -40 0
-122 -17 0
-122 -41 0
-122 -18 0
-122 -42 0
-122 -19 0
-122 -43 0
-122 -44 0
-122 -21 0
-122 -45 0
-122 -23 0
-122 -25 0
-122 -26 0
-122 -3 0
-122 -28 0
-122 -5 0
-122 -29 0
-122 -30 0
-122 -7 0
-122 -8 0
-122 -32 0
-122 -9 0
-122 -10 0
-122 -11 0
-122 -12 0
-122 -1 0
-122 -2 0
-122 -46 0
-122 -47 0
-122 -48 0
-122 -49 0
-122 -50 0
-122 -37 0
-122 -14 0
-122 -38 0
-122 -15 0
-122 -39 0
123 28 124 0
123 -28 -124 0
-123 28 -124 0
-123 -28 124 0
124 16 17 41 18 42 19 43 44 21 45 23 25 26 3 28 29 30 7 8 32 10 11 12 1 2 46 47 48 49 50 37 14 38 15 39 0
-124 -16 0
-124 -17 0
-124 -41 0
-124 -18 0
-124 -42 0
-124 -19 0
-124 -43 0
-124 -44 0
-124 -21 0
-124 -45 0
-124 -23 0
-124 -25 0
-124 -26 0
-124 -3 0
-124 -28 0
-124 -29 0
-124 -30 0
-124 -7 0
-124 -8 0
-124 -32 0
-124 -10 0
-124 -11 0
-124 -12 0
-124 -1 0
-124 -2 0
-124 -46 0
-124 -47 0
-124 -48 0
-124 -49 0
-124 -50 0
-124 -37 0
-124 -14 0
-124 -38 0
-124 -15 0
-124 -39 0
125 39 126 0
125 -39 -126 0
-125 39 -126 0
-125 -39 126 0
126 16 40 17 41 18 42 19 43 44 21 45 23 25 26 3 28 5 29 30 7 8 32 9 10 11 12 2 47 48 49 50 37 14 38 15 39 0
-126 -16 0
-126 -40 0
-126 -17 0
-126 -41 0
-126 -18 0
-126 -42 0
-126 -19 0
-126 -43 0
-126 -44 0
-126 -21 0
-126 -45 0
-126 -23 0
-126 -25 0
-126 -26 0
-126 -3 0
-126 -28 0
-126 -5 0
-126 -29 0
-126 -30 0
-126 -7 0
-126 -8 0
-126 -32 0
-126 -9 0
-126 -10 0
-126 -11 0
-126 -12 0
-126 -2 0
-126 -47 0
-126 -48 0
-126 -49 0
-126 -50 0
-126 -37 0
-126 -14 0
-126 -38 0
-126 -15 0
-126 -39 0
127 48 128 0
127 -48 -128 0
-127 48 -128 0
-127 -48 128 0
128 16 40 17 41 18 42 19 43 44 21 45 23 25 26 3 27 4 28 5 29 30 7 8 32 9 10 34 11 12 1 2 46 47 48 49 50 37 14 38 15 39 0
-128 -16 0
-128 -40 0
-128 -17 0
-128 -41 0
-128 -18 0
-128 -42 0
-128 -19 0
-128 -43 0
-128 -44 0
-128 -21 0
-128 -45 0
-128 -23 0
-128 -25 0
-128 -26 0
-128 -3 0
-128 -27 0
-128 -4 0
-128 -28 0
-128 -5 0
-128 -29 0
-128 -30 0
-128 -7 0
-128 -8 0
-128 -32 0
-128 -9 0
-128 -10 0
-128 -34 0
-128 -11 0
-128 -12 0
-128 -1 0
-128 -2 0
-128 -46 0
-128 -47 0
-128 -48 0
-128 -49 0
-128 -50 0
-128 -37 0
-128 -14 0
-128 -38 0
-128 -15 0
-128 -39 0
129 13 130 0
129 -13 -130 0
-129 13 -130 0
-129 -13 130 0
130 4 40 5 14 27 0
-130 -4 0
-130 -40 0
-130 -5 0
-130 -14 0
-130 -27 0
131 24 132 0
131 -24 -132 0
-131 24 -132 0
-131 -24 132 0
132 16 5 29 41 7 19 43 8 44 45 11 23 12 2 47 48 49 50 25 37 14 3 39 0
-132 -16 0
-132 -5 0
-132 -29 0
-132 -41 0
-132 -7 0
-132 -19 0
-132 -43 0
-132 -8 0
-132 -44 0
-132 -45 0
-132 -11 0
-132 -23 0
-132 -12 0
-132 -2 0
-132 -47 0
-132 -48 0
-132 -49 0
-132 -50 0
-132 -25 0
-132 -37 0
-132 -14 0
-132 -3 0
-132 -39 0
133 6 134 0
133 -6 -134 0
-133 6 -134 0
-133 -6 134 0
134 16 40 41 19 43 45 23 25 3 5 29 7 8 34 11 2 46 47 48 49 50 37 14 39 0
-134 -16 0
-134 -40 0
-134 -41 0
-134 -19 0
-134 -43 0
-134 -45 0
-134 -23 0
-134 -25 0
-134 -3 0
-134 -5 0
-134 -29 0
-134 -7 0
-134 -8 0
-134 -34 0
-134 -11 0
-134 -2 0
-134 -46 0
-134 -47 0
-134 -48 0
-134 -49 0
-134 -50 0
-134 -37 0
-134 -14 0
-134 -39 0
135 43 136 0
135 -43 -136 0
-135 43 -136 0
-135 -43 136 0
136 16 40 17 41 42 19 43 20 44 21 45 23 25 26 3 27 4 28 5 29 7 8 32 9 10 34 11 12 2 46 47 48 49 50 37 14 38 15 39 0
-136 -16 0
-136 -40 0
-136 -17 0
-136 -41 0
-136 -42 0
-136 -19 0
-136 -43 0
-136 -20 0
-136 -44 0
-136 -21 0
-136 -45 0
-136 -23 0
-136 -25 0
-136 -26 0
-136 -3 0
-136 -27 0
-136 -4 0
-136 -28 0
-136 -5 0
-136 -29 0
-136 -7 0
-136 -8 0
-136 -32 0
-136 -9 0
-136 -10 0
-136 -34 0
-136 -11 0
-136 -12 0
-136 -2 0
-136 -46 0
-136 -47 0
-136 -48 0
-136 -49 0
-136 -50 0
-136 -37 0
-136 -14 0
-136 -38 0
-136 -15 0
-136 -39 0
137 26 138 0
137 -26 -138 0
-137 26 -138 0
-137 -26 138 0
138 16 17 29 18 30 42 7 19 43 8 32 44 12 2 47 48 49 50 39 0
-138 -16 0
-138 -17 0
-138 -29 0
-138 -18 0
-138 -30 0
-138 -42 0
-138 -7 0
-138 -19 0
-138 -43 0
-138 -8 0
-138 -32 0
-138 -44 0
-138 -12 0
-138 -2 0
-138 -47 0
-138 -48 0
-138 -49 0
-138 -50 0
-138 -39 0
139 9 140 0
139 -9 -140 0
-139 9 -140 0
-139 -9 140 0
140 4 16 40 5 29 7 19 43 8 32 9 12 2 47 48 14 27 39 0
-140 -4 0
-140 -16 0
-140 -40 0
-140 -5 0
-140 -29 0
-140 -7 0
-140 -19 0
-140 -43 0
-140 -8 0
-140 -32 0
-140 -9 0
-140 -12 0
-140 -2 0
-140 -47 0
-140 -48 0
-140 -14 0
-140 -27 0
-140 -39 0
141 1 1 0
-141 -1 0
-141 -1 0
51 0
53 0
34 0
55 0
57 0
30 0
59 0
61 0
63 0
27 0
65 0
67 0
69 0
71 0
73 0
35 0
75 0
77 0
79 0
20 0
81 0
83 0
85 0
87 0
89 0
91 0
93 0
95 0
97 0
99 0
101 0
103 0
105 0
107 0
5 0
109 0
111 0
113 0
115 0
117 0
4 0
119 0
121 0
123 0
125 0
127 0
129 0
131 0
133 0
135 0
137 0
139 0
141 0
